nApps = 198
nRes = 9
nActs = 380
nNetworks = 6

assignmentToResources = [1,1,1,1,1,1,1,3,1,1,1,1,1,1,3,1,1,3,1,1,3,1,1,3,2,3,1,3,3,2,2,3,2,2,2,1,2,1,2,2,1,1,3,2,1,1,1,1,1,2,1,1,2,2,2,2,3,2,2,1,1,3,3,3,1,1,3,3,2,3,2,3,2,3,3,2,1,3,3,3,3,3,2,1,2,2,3,2,2,1,3,3,3,3,2,1,2,1,2,2,4,4,4,4,4,4,4,4,4,6,4,4,4,4,4,4,4,4,4,4,4,4,4,6,6,4,4,4,6,6,6,6,4,4,6,6,4,4,4,4,5,6,6,6,5,5,5,5,6,5,5,5,5,5,5,5,4,5,4,5,4,4,4,4,6,5,5,5,4,4,4,4,4,4,4,4,4,4,4,4,5,5,5,5,5,6,6,6,4,6,4,4,4,6,6,6,6,6,6,6,5,5,6,5,5,5,6,6,6,6,6,6,6,5,5,4,5,6,5,4,5,5,5,7,4,9,5,9,5,7,6,7,6,8,5,7,4,8,4,9,5,7,4,8,4,9,6,8,4,9,6,7,4,9,6,8,6,8,8,9,8,8,9,9,9,8,9,7,9,8,9,9,8,9,8,9,8,9,9,9,8,8,8,8,8,8,8,7,7,7,9,8,8,8,8,8,9,8,7,7,7,7,7,9,7,7,8,9,7,7,9,7,9,7,8,7,8,9,8,9,8,8,8,7,7,9,8,9,9,9,8,9,9,8,9,8,9,9,7,7,7,9,7,8,8,7,8,7,8,8,9,7,8,8,7,8,7,8,9,7,8,7,7,9,8,7,8,7,7,7,8,9,7,9,7,7,9,9,9,9];

processingTimes = [96,168,56,64,104,136,128,88,64,104,56,104,112,128,176,136,96,136,136,128,56,104,88,136,104,80,128,56,104,128,80,136,88,112,112,48,80,128,120,112,104,72,104,152,120,112,88,112,112,168,136,112,128,48,56,48,88,88,136,152,112,56,64,144,56,112,64,120,136,88,128,120,136,64,144,168,80,152,104,120,152,104,48,112,48,64,64,120,128,152,48,88,128,96,96,136,144,128,56,136,500,3,4,4,1000,1000,3,3,8,3,4,4,1000,4,500,3,4,1000,3,3,4,3,3,3,13,3,4,3,3,3,3,4,8,5,500,3,3,3,1000,8,500,500,3,10,3,3,3,3,3,3,3,4,13,4,4,500,3,3,4,3,3,4,3,500,4,3,3,3,4,4,4,3,3,5,5,500,5,5,3,1000,4,4,4,1000,3,100,100,100,5,4,4,4,3,3,4,4,4,4,4,4,3,500,3,500,3,4,3,500,3,3,4,3,3,3,500,1000,4,500,7,1000,4,4,3,3,1000,1000,1000,1000,4,4,4,4,3,3,4,4,3,3,3,3,3,3,4,4,3,3,8,8,500,500,500,500,500,500,500,500,6,6,500,3,4,4,1000,1000,3,3,8,3,4,4,1000,4,500,3,4,1000,3,3,4,3,3,3,13,3,4,3,3,3,3,4,8,5,500,3,3,3,1000,8,500,500,3,10,3,3,3,3,3,3,3,4,13,4,4,500,3,3,4,3,3,4,3,500,4,3,3,3,4,4,4,3,3,5,5,500,5,5,3,1000,4,4,4,1000,3,100,100,100,5,4,4,4,3,3,4,4,4,4,4,4,3,500,3,500,3,4,3,500,3,3,4,3,3,3,500,1000,4,500,7,1000,4,4];

periods = [50000,100000,100000,20000,10000,100000,20000,10000,2000,10000,100000,20000,100000,100000,10000,20000,20000,10000,10000,20000,10000,100000,2000,100000,10000,10000,20000,100000,2000,50000,20000,100000,10000,100000,20000,10000,10000,20000,100000,10000,5000,20000,10000,50000,100000,100000,100000,20000,100000,20000,100000,20000,100000,20000,20000,100000,1000,20000,10000,20000,2000,20000,100000,100000,20000,100000,20000,100000,10000,100000,1000,20000,5000,20000,20000,10000,20000,100000,100000,20000,10000,10000,20000,10000,20000,100000,20000,100000,10000,20000,100000,10000,5000,2000,50000,10000,20000,10000,20000,10000,50000,100000,100000,100000,20000,10000,100000,100000,20000,10000,2000,10000,10000,100000,100000,20000,20000,100000,100000,100000,100000,100000,100000,10000,10000,20000,20000,20000,10000,10000,10000,10000,20000,20000,10000,10000,100000,100000,100000,100000,10000,10000,100000,2000,50000,50000,50000,50000,100000,10000,100000,100000,100000,20000,20000,20000,10000,10000,20000,10000,5000,5000,5000,20000,10000,50000,50000,50000,100000,100000,100000,20000,20000,100000,100000,100000,100000,100000,20000,20000,100000,20000,20000,20000,20000,1000,1000,1000,2000,20000,20000,20000,100000,20000,20000,20000,100000,100000,100000,20000,5000,5000,20000,10000,10000,10000,20000,20000,20000,10000,10000,10000,10000,20000,20000,10000,20000,20000,100000,10000,20000,10000,50000,50000,10000,10000,10000,10000,10000,10000,10000,10000,10000,10000,10000,10000,10000,10000,10000,10000,100000,100000,20000,20000,5000,5000,5000,5000,20000,20000,20000,20000,20000,20000,20000,20000,1000,1000,50000,100000,100000,100000,20000,10000,100000,100000,20000,10000,2000,10000,10000,100000,100000,20000,20000,100000,100000,100000,100000,100000,100000,10000,10000,20000,20000,20000,10000,10000,10000,10000,20000,20000,10000,10000,100000,100000,100000,100000,10000,10000,100000,2000,50000,50000,50000,50000,100000,10000,100000,100000,100000,20000,20000,20000,10000,10000,20000,10000,5000,5000,5000,20000,10000,50000,50000,50000,100000,100000,100000,20000,20000,100000,100000,100000,100000,100000,20000,20000,100000,20000,20000,20000,20000,1000,1000,1000,2000,20000,20000,20000,100000,20000,20000,20000,100000,100000,100000,20000,5000,5000,20000,10000,10000,10000,20000,20000,20000,10000,10000,10000,10000,20000,20000,10000,20000,20000,100000,10000,20000,10000];

assignmentToClusters = [1,2,3,4,5,6,7,8,9,10,11,12,13,14,15,16,17,18,18,19,20,21,22,23,8,18,24,25,26,27,28,29,30,31,32,33,34,35,36,37,38,39,40,1,41,42,43,44,45,24,46,47,48,49,44,21,50,44,51,52,53,54,55,56,52,42,57,29,18,58,50,59,38,44,44,60,44,61,62,63,18,64,65,8,66,21,67,68,69,44,70,71,38,72,73,18,74,75,76,18,77,78,79,80,81,82,83,84,85,86,87,88,89,90,91,92,93,94,95,96,97,98,99,100,101,102,103,104,105,106,107,108,109,110,111,112,113,114,115,116,117,118,119,120,121,122,123,124,125,126,127,128,129,130,131,132,133,134,135,136,137,138,139,140,141,142,143,144,145,146,147,148,149,150,151,152,153,154,155,156,157,158,159,160,161,162,163,164,165,166,167,168,169,170,171,172,173,174,175,176,177,178,179,180,181,182,183,184,185,186,187,188,189,190,191,192,193,194,195,196,197,198,1,1,8,8,8,8,18,18,18,18,18,18,18,18,18,18,18,18,21,21,24,24,38,38,38,38,44,44,44,44,44,44,44,44,50,50,77,78,79,80,81,82,83,84,85,86,87,88,89,90,91,92,93,94,95,96,97,98,99,100,101,102,103,104,105,106,107,108,109,110,111,112,113,114,115,116,117,118,119,120,121,122,123,124,125,126,127,128,129,130,131,132,133,134,135,136,137,138,139,140,141,142,143,144,145,146,147,148,149,150,151,152,153,154,155,156,157,158,159,160,161,162,163,164,165,166,167,168,169,170,171,172,173,174,175,176,177,178,179,180,181,182,183,184,185,186,187,188,189,190,191,192,193,194,195,196,197,198];

precedenceAdjList = [[223],[],[],[],[],[],[],[225,227],[],[],[],[],[],[],[],[],[],[],[229,231],[],[],[241],[],[],[],[],[],[],[],[],[],[],[],[],[],[],[],[],[],[],[],[],[],[],[],[],[],[],[],[243],[],[],[],[],[255],[],[],[54],[],[],[],[],[],[],[59],[45],[],[31],[233],[],[257],[],[247],[249],[253],[],[251],[],[],[],[239],[],[],[],[],[55],[],[],[],[76],[],[],[245],[],[],[235],[],[],[],[237],[],[],[],[],[],[],[],[],[],[],[],[],[],[],[],[],[],[],[],[],[],[],[],[],[],[],[],[],[],[],[],[],[],[],[],[],[],[],[],[],[],[],[],[],[],[],[],[],[],[],[],[],[],[],[],[],[],[],[],[],[],[],[],[],[],[],[],[],[],[],[],[],[],[],[],[],[],[],[],[],[],[],[],[],[],[],[],[],[],[],[],[],[],[],[],[],[],[],[],[],[],[],[],[],[],[],[],[],[],[],[],[],[],[],[],[],[],[],[],[],[],[],[43],[222],[83],[224],[24],[226],[68],[228],[17],[230],[25],[232],[68],[234],[95],[236],[18],[238],[85],[240],[26],[242],[40],[244],[92],[246],[47],[248],[73],[250],[76],[252],[74],[254],[56],[256],[100],[101],[102],[103],[104],[105],[106],[107],[108],[109],[110],[111],[112],[113],[114],[115],[116],[117],[118],[119],[120],[121],[122],[123],[124],[125],[126],[127],[128],[129],[130],[131],[132],[133],[134],[135],[136],[137],[138],[139],[140],[141],[142],[143],[144],[145],[146],[147],[148],[149],[150],[151],[152],[153],[154],[155],[156],[157],[158],[159],[160],[161],[162],[163],[164],[165],[166],[167],[168],[169],[170],[171],[172],[173],[174],[175],[176],[177],[178],[179],[180],[181],[182],[183],[184],[185],[186],[187],[188],[189],[190],[191],[192],[193],[194],[195],[196],[197],[198],[199],[200],[201],[202],[203],[204],[205],[206],[207],[208],[209],[210],[211],[212],[213],[214],[215],[216],[217],[218],[219],[220],[221]];